!! WARNING : bond order parameters are not specified for all pairs in ReaxFF

*  optimise     - perform optimisation run                                     *
*  conp         - constant pressure calculation                                *
*  property     - calculate properties for final geometry                      *
*  distance     - calculate distances                                          *

  Job Started  at 14:40.54  3rd October    2017

  Number of CPUs =     1

  Total number of configurations input =   1

*  Input for Configuration =   1 : a1-ZrW2O8                                   *

  Formula = Zr4W8O32

  Number of irreducible atoms/shells =       7

  Total number atoms/shells =      44

  Dimensionality = 3               :  Bulk

  Symmetry :

  Crystal family                   :  Cubic
  Crystal class  (Groth - 1921)    :  Cubic Tetrahedral-Pentagonaldodecahed

  Space group (noncentrosymmetric) :  P 21 3

  Patterson group                  :  P m -3

  Cartesian lattice vectors (Angstroms) :

        9.180000    0.000000    0.000000
        0.000000    9.180000    0.000000
        0.000000    0.000000    9.180000

  Cell parameters (Angstroms/Degrees):

  a =       9.1800    alpha =  90.0000
  b =       9.1800    beta  =  90.0000
  c =       9.1800    gamma =  90.0000

  Initial cell volume =         773.620632 Angs**3

  Temperature of configuration =  0.000     K

  Pressure of configuration =         0.000 GPa

  Fractional coordinates of asymmetric unit :

   No.  Atomic       x           y          z         Charge      Occupancy
        Label      (Frac)      (Frac)     (Frac)        (e)         (Frac)
      1 Zr    c    0.001300 *  0.001300    0.001300     0.00000    1.000000
      2 W1    c    0.340500 *  0.340500    0.340500     0.00000    1.000000
      3 W2    c    0.599820 *  0.599820    0.599820     0.00000    1.000000
      4 O1    c    0.206310 *  0.439200 *  0.447000 *   0.00000    1.000000
      5 O2    c    0.786620 *  0.567600 *  0.555980 *   0.00000    1.000000
      6 O3    c    0.491770 *  0.491770    0.491770     0.00000    1.000000
      7 O4    c    0.233180 *  0.233180    0.233180     0.00000    1.000000

  Constraints :

  Constraint no.      Unconstrained     Constrained    Coefficient    Offset
                         Variable         Variable
           1              Strain 1        Strain 2       1.00000      0.0000
           2              Strain 1        Strain 3       1.00000      0.0000
           3                 1 x             1 y         1.00000      0.0000
           4                 1 x             1 z         1.00000      0.0000
           5                 2 x             2 y         1.00000      0.0000
           6                 2 x             2 z         1.00000      0.0000
           7                 3 x             3 y         1.00000      0.0000
           8                 3 x             3 z         1.00000      0.0000
           9                 6 x             6 y         1.00000      0.0000
          10                 6 x             6 z         1.00000      0.0000
          11                 7 x             7 y         1.00000      0.0000
          12                 7 x             7 z         1.00000      0.0000

  Distance calculation :

  Cutoff for distances  =      2.000000 Angstroms

  Asymmetric unit site  Full lattice sites    No.  Distance      No.  Distance
      No.   At.No.            At.No.                (Angs)             (Angs)
       2   W1    core        O1    core         3    1.8150
                             O4    core         1    1.7064
       3   W2    core        O2    core         3    1.7861
                             O3    core         1    1.7180
       4   O1    core        W1    core         1    1.8150
       5   O2    core        W2    core         1    1.7861
       6   O3    core        W2    core         1    1.7180
       7   O4    core        W1    core         1    1.7064

*  General input information                                                   *

  Species output for all configurations :

  Species    Type    Atomic    Atomic    Charge       Radii (Angs)     Library
                     Number     Mass       (e)     Cova   Ionic  VDW   Symbol
    Zr       Core       40      91.22   0.000000   1.560  0.000  2.330
    W1       Core       74     183.85   0.000000   1.370  0.000  2.040
    W2       Core       74     183.85   0.000000   1.370  0.000  2.040
    O1       Core        8      16.00   0.000000   0.730  0.000  1.360
    O2       Core        8      16.00   0.000000   0.730  0.000  1.360
    O3       Core        8      16.00   0.000000   0.730  0.000  1.360
    O4       Core        8      16.00   0.000000   0.730  0.000  1.360

  Lattice summation method               =    Ewald          (3-D)
                                         =    Parry          (2-D)
                                         =    Saunders et al (1-D)
  Accuracy factor for lattice sums       =   12.000

  Time limit = Infinity

  Maximum range for interatomic potentials =    100000.000000 Angstroms

  ReaxFF forcefield to be used

  ReaxFF Coulomb cutoff =  10.0000 Ang
  ReaxFF VDW     cutoff =  10.0000 Ang
  ReaxFF H-bond  cutoff =   7.5000 Ang

  ReaxFF pairwise bond order       threshold = 0.00010000000000
  ReaxFF angle/torsion bond order  threshold = 0.00100000000000
  ReaxFF bond order double product threshold = 0.00000100000000
  ReaxFF bond order triple product threshold = 0.00000000100000
  ReaxFF hydrogen-bond bond order  threshold = 0.01000000000000

*  Output for configuration   1 : a1-ZrW2O8                                    *

  Components of energy :

  Interatomic potentials     =           0.00000000 eV
  ReaxFF force field         =        -182.95025111 eV
  Monopole - monopole (real) =           0.00000000 eV
  Monopole - monopole (recip)=           0.00000000 eV
  Monopole - monopole (total)=           0.00000000 eV
  Total lattice energy       =        -182.95025111 eV
  Total lattice energy       =          -17651.9026 kJ/(mole unit cells)

  Number of variables =       12

  Maximum number of calculations  =          1000
  Maximum Hessian update interval =            10
  Maximum step size               =   1.000000000
  Maximum parameter tolerance     =   0.000010000
  Maximum function  tolerance     =   0.000010000
  Maximum gradient  tolerance     =   0.001000000
  Maximum gradient  component     =   0.010000000

  Maximum LM gradient tolerance   =   0.900000000
  Symmetry constrained optimisation

  Cell parameters to be optimised using strains

  BFGS hessian update to be used

  Start of bulk optimisation :

  **** Optimisation achieved ****

  Final energy =    -222.19862977 eV
  Final Gnorm  =       0.00095318

  Components of energy :

  Interatomic potentials     =           0.00000000 eV
  ReaxFF force field         =        -222.19862977 eV
  Monopole - monopole (real) =           0.00000000 eV
  Monopole - monopole (recip)=           0.00000000 eV
  Monopole - monopole (total)=           0.00000000 eV
  Total lattice energy       =        -222.19862977 eV
  Total lattice energy       =          -21438.7712 kJ/(mole unit cells)

  Final asymmetric unit coordinates :

   No.  Atomic        x           y           z         Radius
        Label       (Frac)      (Frac)      (Frac)       (Angs)
     1  Zr    c     0.012855    0.012855    0.012855    0.000000
     2  W1    c     0.331466    0.331466    0.331466    0.000000
     3  W2    c     0.583922    0.583922    0.583922    0.000000
     4  O1    c     0.155723    0.417796    0.431189    0.000000
     5  O2    c     0.795429    0.550503    0.535855    0.000000
     6  O3    c     0.458797    0.458797    0.458797    0.000000
     7  O4    c     0.206826    0.206826    0.206826    0.000000

  Final Cartesian lattice vectors (Angstroms) :

       10.141726    0.000000    0.000000
        0.000000   10.141726    0.000000
        0.000000    0.000000   10.141726

  Final cell parameters and derivatives :

       a           10.141726 Angstrom     dE/de1(xx)    -0.002530 eV/strain
       b           10.141726 Angstrom     dE/de2(yy)     0.000000 eV/strain
       c           10.141726 Angstrom     dE/de3(zz)     0.000000 eV/strain
       alpha       90.000000 Degrees      dE/de4(yz)     0.000000 eV/strain
       beta        90.000000 Degrees      dE/de5(xz)     0.000000 eV/strain
       gamma       90.000000 Degrees      dE/de6(xy)     0.000000 eV/strain

  Primitive cell volume =          1043.123291 Angs**3

  Density of cell =      3.737311 g/cm**3

  Non-primitive cell volume =          1043.123291 Angs**3

  Final internal derivatives :

   No.  Atomic          a             b             c           Radius
        Label          (eV)          (eV)          (eV)        (eV/Angs)
      1 Zr    c      -0.007497      0.000000      0.000000      0.000000
      2 W1    c      -0.000661      0.000000      0.000000      0.000000
      3 W2    c       0.000721      0.000000      0.000000      0.000000
      4 O1    c      -0.005604      0.003703     -0.002322      0.000000
      5 O2    c       0.002033     -0.002419      0.001993      0.000000
      6 O3    c      -0.001068      0.000000      0.000000      0.000000
      7 O4    c       0.001288      0.000000      0.000000      0.000000
  Maximum abs         0.007497      0.003703      0.002322      0.000000

  Final charges from ReaxFF :

    Atom no.            Atomic No.             Charge
         1                  40                 2.0270673
         2                  40                 2.0270673
         3                  40                 2.0270673
         4                  40                 2.0270673
         5                  74                 1.4111130
         6                  74                 1.4111130
         7                  74                 1.4111130
         8                  74                 1.4111130
         9                  74                 1.3753851
        10                  74                 1.3753851
        11                  74                 1.3753851
        12                  74                 1.3753851
        13                   8                -0.6297644
        14                   8                -0.6297644
        15                   8                -0.6297644
        16                   8                -0.6297644
        17                   8                -0.6297644
        18                   8                -0.6297644
        19                   8                -0.6297644
        20                   8                -0.6297644
        21                   8                -0.6297644
        22                   8                -0.6297644
        23                   8                -0.6297644
        24                   8                -0.6297644
        25                   8                -0.6582154
        26                   8                -0.6582154
        27                   8                -0.6582154
        28                   8                -0.6582154
        29                   8                -0.6582154
        30                   8                -0.6582154
        31                   8                -0.6582154
        32                   8                -0.6582154
        33                   8                -0.6582154
        34                   8                -0.6582154
        35                   8                -0.6582154
        36                   8                -0.6582154
        37                   8                -0.5609167
        38                   8                -0.5609167
        39                   8                -0.5609167
        40                   8                -0.5609167
        41                   8                -0.3887093
        42                   8                -0.3887093
        43                   8                -0.3887093
        44                   8                -0.3887093

  Distance calculation :

  Cutoff for distances  =      2.000000 Angstroms

  Asymmetric unit site  Full lattice sites    No.  Distance      No.  Distance
      No.   At.No.            At.No.                (Angs)             (Angs)

  Elastic Constant Matrix: (Units=GPa)

  Indices      1         2         3         4         5         6
       1     35.1941   29.1667   29.1667   -0.0000    0.0000    0.0000
       2     29.1667   35.1941   29.1667    0.0000    0.0000    0.0000
       3     29.1667   29.1667   35.1941   -0.0000   -0.0000   -0.0000
       4     -0.0000    0.0000   -0.0000   16.3282   -0.0000   -0.0000
       5      0.0000    0.0000   -0.0000   -0.0000   16.3282   -0.0000
       6      0.0000    0.0000   -0.0000   -0.0000   -0.0000   16.3282

  Elastic Compliance Matrix: (Units=1/GPa)

  Indices      1         2         3         4         5         6
       1    0.114170 -0.051739 -0.051739  0.000000 -0.000000 -0.000000
       2   -0.051739  0.114170 -0.051739 -0.000000 -0.000000 -0.000000
       3   -0.051739 -0.051739  0.114170  0.000000  0.000000  0.000000
       4    0.000000 -0.000000  0.000000  0.061244  0.000000  0.000000
       5   -0.000000 -0.000000  0.000000  0.000000  0.061244  0.000000
       6   -0.000000 -0.000000  0.000000  0.000000  0.000000  0.061244

  Mechanical properties :

  Convention :                    Reuss         Voigt         Hill
  Bulk  Modulus (GPa)     =      31.17582      31.17582      31.17582
  Shear Modulus (GPa)     =       5.90062      11.00242       8.45152
  Velocity S-wave (km/s)  =       1.25652       1.71579       1.50379
  Velocity P-wave (km/s)  =       3.23217       3.50243       3.37001
  Compressibility (1/GPa) =    0.03207614
  Stress axis :                     x             y             z
  Youngs Moduli (GPa)     =       8.75885       8.75885       8.75885
  Poissons Ratio (x)      =                     0.45317       0.45318
  Poissons Ratio (y)      =       0.45317                     0.45317
  Poissons Ratio (z)      =       0.45318       0.45318

  Piezoelectric Strain Matrix: (Units=C/m**2)

  Indices      1         2         3         4         5         6
       x    -0.00000  -0.00000  -0.00000  -0.00000  -0.00000  -0.00000
       y    -0.00000  -0.00000  -0.00000  -0.00000  -0.00000  -0.00000
       z    -0.00000  -0.00000  -0.00000  -0.00000  -0.00000  -0.00000

  Piezoelectric Stress Matrix: (Units=10**-11 C/N)

  Indices      1         2         3         4         5         6
       x     0.00000   0.00000   0.00000   0.00000   0.00000   0.00000
       y     0.00000   0.00000   0.00000   0.00000   0.00000   0.00000
       z     0.00000   0.00000   0.00000   0.00000   0.00000   0.00000

  Static dielectric constant tensor :

              x         y         z
       x     1.00000   0.00000   0.00000
       y     0.00000   1.00000   0.00000
       z     0.00000   0.00000   1.00000

  Static refractive indices :

    1 =    1.00000      2 =    1.00000      3 =    1.00000

  Time to end of optimisation =       6.6094 seconds

  Timing analysis for GULP :

  Task / Subroutine                                          Time (Seconds)
  Calculation of reaxFF energy and derivatives                    5.6563
  Electronegativity equalisation                                  0.9219
  Symmetry generation of equivalent positions                     0.0156

  Dump file written as dump.txt

  Job Finished at 14:41.01  3rd October    2017